p edge 64
e 0 4
e 0 21
e 0 34
e 0 45
e 0 47
e 1 19
e 1 22
e 1 27
e 1 38
e 1 62
e 2 4
e 2 8
e 2 17
e 2 33
e 2 61
e 3 11
e 3 28
e 3 39
e 3 46
e 3 55
e 3 56
e 4 21
e 4 29
e 4 33
e 4 34
e 4 61
e 5 6
e 5 14
e 5 43
e 5 49
e 5 57
e 5 60
e 6 11
e 6 28
e 6 43
e 7 35
e 7 36
e 7 41
e 7 46
e 7 50
e 8 17
e 8 29
e 8 37
e 8 61
e 9 13
e 9 28
e 9 40
e 9 43
e 10 12
e 10 14
e 10 15
e 10 63
e 11 28
e 12 15
e 12 31
e 12 58
e 13 28
e 13 36
e 13 40
e 13 41
e 14 15
e 14 30
e 14 57
e 14 63
e 15 26
e 15 57
e 15 58
e 15 60
e 16 18
e 16 20
e 16 23
e 16 26
e 16 40
e 17 37
e 17 48
e 18 20
e 18 23
e 18 42
e 18 52
e 18 58
e 19 31
e 19 38
e 19 51
e 19 58
e 19 62
e 20 36
e 20 40
e 20 52
e 21 24
e 21 29
e 21 35
e 21 45
e 21 50
e 21 54
e 22 27
e 22 38
e 23 26
e 23 58
e 24 35
e 24 45
e 24 54
e 24 55
e 25 34
e 25 47
e 25 59
e 26 40
e 26 44
e 26 58
e 26 60
e 27 42
e 27 48
e 27 53
e 27 62
e 28 41
e 28 43
e 28 46
e 29 32
e 29 37
e 29 50
e 29 52
e 29 53
e 29 61
e 30 63
e 31 58
e 32 42
e 32 52
e 32 53
e 33 34
e 33 59
e 34 47
e 35 46
e 35 50
e 35 55
e 36 40
e 36 41
e 36 50
e 36 52
e 37 48
e 37 53
e 39 56
e 40 43
e 40 44
e 40 49
e 40 60
e 41 46
e 42 51
e 42 52
e 42 53
e 42 62
e 43 49
e 44 60
e 45 47
e 45 54
e 46 55
e 48 53
e 49 60
e 50 52
e 51 58
e 51 62
e 55 56
e 57 60
c k 8
